Set parameter TSPort to value 51199
Set parameter TokenServer to value "open-license1.lanl.gov"
Set parameter TimeLimit to value 2048
Set parameter Threads to value 1
Gurobi Optimizer version 10.0.3 build v10.0.3rc0 (linux64)

CPU model: Intel(R) Xeon(R) CPU E5-2695 v4 @ 2.10GHz, instruction set [SSE2|AVX|AVX2]
Thread count: 36 physical cores, 72 logical processors, using up to 1 threads

Optimize a model with 0 rows, 2396 columns and 0 nonzeros
Model fingerprint: 0xd86366d7
Model has 11083 quadratic objective terms
Variable types: 0 continuous, 2396 integer (2396 binary)
Coefficient statistics:
  Matrix range     [0e+00, 0e+00]
  Objective range  [2e+00, 3e+01]
  QObjective range [8e+00, 8e+00]
  Bounds range     [1e+00, 1e+00]
  RHS range        [0e+00, 0e+00]
Found heuristic solution: objective 0.0000000
Found heuristic solution: objective -4068.000000
Found heuristic solution: objective -14786.00000
Found heuristic solution: objective -14838.00000
Presolve time: 0.35s
Presolved: 11083 rows, 13479 columns, 33249 nonzeros
Variable types: 0 continuous, 13479 integer (13479 binary)

Root relaxation: objective -2.074600e+04, 3448 iterations, 0.05 seconds (0.02 work units)

    Nodes    |    Current Node    |     Objective Bounds      |     Work
 Expl Unexpl |  Obj  Depth IntInf | Incumbent    BestBd   Gap | It/Node Time

     0     0 -20746.000    0 2396 -14838.000 -20746.000  39.8%     -    0s
     0     0 -19341.500    0 3098 -14838.000 -19341.500  30.4%     -    1s
     0     0 -19190.000    0 3176 -14838.000 -19190.000  29.3%     -    1s
     0     0 -19188.000    0 3177 -14838.000 -19188.000  29.3%     -    1s
     0     0 -18969.833    0 3338 -14838.000 -18969.833  27.8%     -    2s
     0     0 -18969.833    0 3309 -14838.000 -18969.833  27.8%     -    2s
     0     2 -18969.833    0 3306 -14838.000 -18969.833  27.8%     -    3s
    78    80 -18593.833   39 3670 -14838.000 -18955.833  27.8%   159    5s
   376   378 -17351.750  188 4448 -14838.000 -18955.833  27.8%  97.5   10s
   670   672 -16344.000  335 4686 -14838.000 -18955.833  27.8%  82.4   15s
   836   838 -15848.500  419 4785 -14838.000 -18955.833  27.8%  76.8   20s
  1104  1106 -15250.500  554 4295 -14838.000 -18955.833  27.8%  69.0   25s
H 1328  1314                    -14840.00000 -18955.833  27.7%  63.2   27s
  1374  1313 -18149.500   89 2396 -14840.000 -18954.833  27.7%  61.7   31s
  1377  1315 -15840.000  421 3985 -14840.000 -18042.633  21.6%  61.6   35s
  1384  1320 -15241.500  556 4641 -14840.000 -17638.214  18.9%  61.3   46s
  1385  1321 -16849.250  259 4992 -14840.000 -17555.979  18.3%  61.2   54s
  1386  1321 -16581.250  297 5093 -14840.000 -17535.442  18.2%  61.2   58s
  1388  1323 -17528.921   42 5300 -14840.000 -17528.921  18.1%  61.1   61s
  1399  1330 -15986.500  397 5861 -14840.000 -17269.286  16.4%  60.6  104s
  1400  1331 -15146.000  576 6219 -14840.000 -17202.119  15.9%  60.6  141s
  1401  1331 -16881.250  254 6476 -14840.000 -17184.264  15.8%  60.5  152s
  1402  1332 -15140.000  577 6582 -14840.000 -17179.222  15.8%  60.5  158s
  1403  1333 -16333.000  337 6709 -14840.000 -17176.810  15.7%  60.4  162s
  1404  1333 -17175.708  120 6699 -14840.000 -17175.708  15.7%  60.4  165s
  1409  1337 -14933.667  628 6781 -14840.000 -17174.979  15.7%  60.2  170s
  1410  1337 -16721.250  277 7102 -14840.000 -16970.353  14.4%  60.1  250s
  1411  1338 -16925.170   40 7522 -14840.000 -16925.170  14.1%  60.1  315s
  1412  1339 -14885.667  649 7599 -14840.000 -16915.486  14.0%  60.1  335s
  1413  1339 -16911.892  246 7700 -14840.000 -16911.892  14.0%  60.0  345s
  1414  1340 -16910.745  204 7809 -14840.000 -16910.745  14.0%  60.0  350s
  1416  1341 -15117.000  580 7828 -14840.000 -16909.833  13.9%  59.9  357s
  1420  1344 -15900.500  411 7911 -14840.000 -16909.682  13.9%  59.7  360s
  1422  1345 -14870.667  655 8269 -14840.000 -16740.033  12.8%  59.6  482s
  1423  1346 -16672.250  284 8815 -14840.000 -16705.872  12.6%  59.6  565s
  1424  1347 -16696.306   47 8934 -14840.000 -16696.306  12.5%  59.5  598s
  1425  1347 -15227.500  560 9011 -14840.000 -16693.735  12.5%  59.5  611s
  1426  1348 -16693.085  211 9091 -14840.000 -16693.085  12.5%  59.5  617s
  1427  1349 -16692.756  253 9151 -14840.000 -16692.756  12.5%  59.4  621s
  1429  1350 -16692.528  154 9162 -14840.000 -16692.528  12.5%  59.3  626s
  1433  1353 -16402.000  326 9170 -14840.000 -16692.395  12.5%  59.2  630s
  1434  1353 -14898.667  645 9349 -14840.000 -16603.238  11.9%  59.1  751s
  1435  1354 -16586.880  261 9521 -14840.000 -16586.880  11.8%  59.1  823s
  1436  1355 -14867.667  656 9703 -14840.000 -16583.501  11.7%  59.1  844s
  1437  1355 -15675.750  462 9765 -14840.000 -16582.650  11.7%  59.0  853s
  1438  1356 -16582.292  240 9857 -14840.000 -16582.292  11.7%  59.0  859s
  1439  1357 -16582.141  158 9891 -14840.000 -16582.141  11.7%  58.9  862s
  1441  1358 -16429.750  321 9914 -14840.000 -16581.993  11.7%  58.8  865s
  1444  1360 -16509.446  159 9999 -14840.000 -16509.446  11.2%  58.7  992s
  1445  1361 -16179.000  363 10342 -14840.000 -16496.685  11.2%  58.7 1050s
  1446  1361 -15052.000  595 10385 -14840.000 -16494.018  11.1%  58.6 1071s
  1447  1362 -15073.000  590 10432 -14840.000 -16493.219  11.1%  58.6 1081s
  1448  1363 -15704.250  454 10473 -14840.000 -16492.763  11.1%  58.6 1089s
  1449  1363 -16492.586   79 10510 -14840.000 -16492.586  11.1%  58.5 1093s
  1450  1364 -15827.500  424 10524 -14840.000 -16492.542  11.1%  58.5 1095s
  1453  1366 -16492.473  105 10536 -14840.000 -16492.473  11.1%  58.4 1100s
  1454  1367 -15383.500  526 10614 -14840.000 -16438.329  10.8%  58.3 1225s
  1455  1367 -16428.105  200 10775 -14840.000 -16428.105  10.7%  58.3 1297s
  1456  1368 -16425.970  312 10774 -14840.000 -16425.970  10.7%  58.2 1319s
  1457  1369 -15671.750  466 10881 -14840.000 -16425.234  10.7%  58.2 1328s
  1458  1369 -16376.000  330 10920 -14840.000 -16425.020  10.7%  58.2 1335s
  1460  1371 -16424.905  101 10942 -14840.000 -16424.905  10.7%  58.1 1340s
  1463  1373 -16390.690   76 10831 -14840.000 -16390.690  10.4%  58.0 1457s
  1464  1373 -15773.000  436 11049 -14840.000 -16382.465  10.4%  57.9 1524s
  1465  1374 -15419.500  521 11081 -14840.000 -16381.333  10.4%  57.9 1540s
  1466  1375 -16380.972  323 11092 -14840.000 -16380.972  10.4%  57.8 1547s
  1467  1375 -16380.887  186 11138 -14840.000 -16380.887  10.4%  57.8 1552s
  1468  1376 -16057.500  384 11155 -14840.000 -16380.833  10.4%  57.8 1555s
  1471  1378 -16198.000  360 11146 -14840.000 -16346.216  10.1%  57.6 1686s
  1472  1379 -16037.500  387 11249 -14840.000 -16339.894  10.1%  57.6 1747s
  1473  1379 -15711.250  452 11252 -14840.000 -16338.837  10.1%  57.6 1764s
  1474  1380 -16338.400   89 11278 -14840.000 -16338.400  10.1%  57.5 1776s
  1475  1381 -16338.306  259 11339 -14840.000 -16338.306  10.1%  57.5 1780s
  1478  1383 -16338.261  220 11346 -14840.000 -16338.261  10.1%  57.4 1786s
  1479  1383 -16311.023  129 11290 -14840.000 -16311.023  9.91%  57.3 1912s
  1480  1384 -16141.000  370 11403 -14840.000 -16305.172  9.87%  57.3 1980s
  1481  1385 -15091.000  586 11430 -14840.000 -16304.115  9.87%  57.3 2003s
  1482  1385 -16303.926  324 11477 -14840.000 -16303.926  9.86%  57.2 2009s
  1483  1386 -15466.500  511 11483 -14840.000 -16303.826  9.86%  57.2 2013s
  1484  1387 -15241.500  556 11502 -14840.000 -16303.771  9.86%  57.1 2017s
  1486  1388 -16303.734  297 11523 -14840.000 -16303.734  9.86%  57.1 2020s

Cutting planes:
  Gomory: 107
  MIR: 426
  Flow cover: 3986
  Zero half: 1357
  Mod-K: 103
  RLT: 527
  BQP: 676

Explored 1487 nodes (1541169 simplex iterations) in 2048.03 seconds (2814.38 work units)
Thread count was 1 (of 72 available processors)

Solution count 5: -14840 -14838 -14786 ... 0

Time limit reached
Best objective -1.484000000000e+04, best bound -1.630200000000e+04, gap 9.8518%

User-callback calls 13151, time in user-callback 0.06 sec

BQP_SOLUTION, 2396, 11083, -5177.000000, 2048.025960, 1, -1, 1, 1, 1, -1, 1, 1, -1, 1, 1, -1, -1, 1, -1, 1, 1, -1, 1, -1, 1, 1, -1, 1, -1, 1, 1, -1, -1, 1, 1, -1, 1, 1, -1, 1, -1, -1, 1, 1, 1, 1, -1, 1, -1, 1, 1, 1, 1, 1, 1, 1, -1, 1, -1, -1, 1, -1, 1, 1, 1, 1, -1, 1, -1, -1, -1, 1, -1, 1, 1, 1, -1, 1, -1, -1, 1, -1, 1, 1, 1, 1, -1, -1, 1, -1, -1, 1, -1, 1, 1, 1, -1, -1, 1, -1, -1, -1, -1, -1, 1, 1, 1, 1, 1, -1, -1, 1, -1, 1, 1, 1, -1, -1, 1, -1, -1, 1, -1, 1, 1, 1, -1, 1, 1, -1, -1, -1, 1, -1, 1, 1, -1, 1, 1, -1, -1, 1, 1, 1, -1, 1, -1, 1, 1, -1, -1, 1, -1, -1, -1, 1, -1, 1, 1, -1, 1, -1, 1, -1, 1, 1, -1, 1, 1, -1, -1, 1, -1, 1, 1, 1, -1, 1, 1, -1, -1, 1, 1, 1, 1, 1, -1, 1, 1, -1, 1, -1, 1, -1, -1, -1, -1, 1, -1, 1, -1, -1, 1, -1, 1, -1, 1, -1, 1, -1, 1, -1, 1, -1, 1, 1, -1, 1, -1, 1, -1, -1, 1, -1, -1, 1, -1, -1, 1, 1, 1, -1, 1, -1, 1, -1, -1, -1, 1, 1, 1, 1, -1, -1, 1, -1, -1, 1, 1, 1, -1, 1, 1, -1, -1, -1, 1, 1, -1, 1, 1, -1, -1, -1, 1, -1, -1, -1, 1, 1, 1, -1, 1, 1, -1, -1, 1, -1, 1, 1, 1, 1, 1, -1, -1, -1, 1, -1, -1, 1, 1, -1, 1, 1, 1, -1, -1, 1, -1, 1, 1, -1, 1, 1, 1, 1, -1, 1, -1, 1, 1, -1, 1, 1, -1, -1, -1, -1, 1, 1, 1, 1, -1, 1, 1, 1, -1, 1, -1, 1, 1, -1, 1, -1, -1, 1, -1, -1, 1, 1, 1, -1, 1, -1, 1, -1, -1, -1, 1, 1, -1, 1, 1, -1, -1, 1, -1, -1, 1, 1, -1, 1, 1, -1, 1, -1, 1, 1, 1, 1, -1, 1, 1, -1, 1, 1, 1, -1, 1, 1, -1, 1, 1, -1, 1, 1, -1, -1, 1, 1, 1, 1, 1, -1, 1, 1, 1, -1, 1, -1, 1, 1, 1, -1, 1, 1, -1, -1, 1, 1, 1, -1, 1, -1, 1, 1, 1, -1, 1, 1, -1, 1, 1, -1, 1, 1, 1, -1, -1, 1, -1, 1, 1, 1, -1, 1, 1, -1, 1, 1, 1, 1, 1, -1, 1, 1, 1, 1, -1, 1, -1, 1, 1, -1, 1, -1, 1, -1, 1, 1, -1, 1, 1, -1, 1, 1, 1, 1, -1, 1, -1, 1, 1, -1, -1, -1, 1, 1, 1, 1, -1, 1, 1, -1, 1, 1, 1, 1, 1, 1, -1, 1, 1, -1, -1, 1, 1, -1, 1, 1, 1, 1, 1, -1, -1, 1, 1, 1, -1, 1, 1, -1, 1, -1, 1, 1, -1, 1, 1, 1, 1, 1, -1, -1, -1, 1, -1, -1, -1, 1, 1, -1, 1, 1, -1, 1, 1, 1, -1, 1, 1, 1, 1, -1, -1, 1, 1, 1, -1, 1, 1, 1, -1, 1, -1, -1, 1, 1, -1, 1, 1, -1, -1, 1, -1, -1, 1, 1, 1, 1, 1, 1, -1, 1, -1, -1, 1, 1, 1, 1, 1, 1, 1, 1, -1, -1, -1, 1, -1, -1, 1, 1, 1, 1, -1, -1, 1, 1, 1, 1, 1, 1, -1, -1, -1, 1, 1, -1, -1, 1, 1, -1, -1, 1, -1, -1, 1, 1, 1, 1, 1, 1, 1, 1, -1, 1, 1, 1, 1, -1, 1, -1, -1, 1, -1, 1, 1, -1, 1, -1, 1, -1, -1, 1, -1, -1, 1, 1, 1, 1, 1, -1, 1, 1, -1, 1, 1, 1, 1, -1, 1, 1, -1, 1, -1, 1, 1, 1, 1, -1, -1, 1, -1, -1, 1, 1, 1, 1, -1, -1, -1, 1, 1, 1, -1, 1, 1, 1, 1, 1, -1, -1, 1, 1, 1, 1, 1, 1, 1, 1, -1, 1, -1, 1, -1, 1, 1, 1, 1, -1, -1, 1, 1, 1, 1, -1, 1, 1, 1, -1, -1, 1, 1, 1, -1, 1, 1, 1, 1, -1, 1, 1, -1, 1, -1, 1, 1, 1, 1, 1, -1, 1, 1, 1, -1, 1, 1, -1, 1, -1, 1, 1, -1, 1, 1, 1, 1, 1, -1, -1, 1, 1, 1, 1, -1, 1, 1, 1, 1, -1, 1, 1, 1, 1, -1, 1, 1, 1, 1, -1, -1, 1, 1, 1, -1, 1, 1, 1, 1, -1, -1, 1, -1, -1, -1, 1, 1, 1, 1, -1, 1, 1, -1, 1, -1, 1, 1, 1, 1, -1, -1, 1, 1, 1, -1, -1, 1, -1, 1, 1, 1, 1, -1, 1, -1, 1, 1, -1, 1, -1, 1, 1, 1, 1, 1, -1, -1, 1, -1, 1, 1, 1, -1, 1, -1, -1, -1, 1, -1, 1, 1, -1, -1, 1, -1, 1, 1, 1, -1, 1, -1, 1, 1, -1, -1, -1, 1, -1, 1, 1, 1, -1, 1, 1, -1, -1, 1, -1, 1, 1, -1, -1, 1, -1, -1, -1, 1, -1, 1, 1, 1, -1, 1, -1, -1, -1, 1, 1, 1, -1, 1, -1, 1, -1, 1, -1, 1, -1, 1, 1, 1, -1, -1, 1, -1, -1, -1, -1, 1, 1, 1, -1, -1, 1, -1, 1, 1, -1, 1, 1, 1, 1, -1, -1, -1, 1, 1, -1, 1, 1, 1, -1, 1, 1, -1, 1, 1, -1, -1, 1, 1, -1, -1, 1, -1, 1, 1, 1, -1, 1, 1, -1, 1, -1, 1, 1, 1, -1, 1, -1, -1, -1, -1, 1, 1, 1, 1, -1, 1, -1, 1, -1, -1, 1, -1, 1, 1, -1, 1, 1, -1, 1, 1, -1, 1, 1, 1, -1, 1, -1, 1, -1, -1, 1, -1, 1, 1, -1, 1, -1, -1, -1, 1, 1, 1, 1, 1, -1, 1, 1, -1, -1, 1, 1, -1, 1, 1, -1, 1, 1, -1, -1, -1, 1, 1, 1, 1, -1, -1, 1, -1, 1, 1, -1, 1, 1, 1, -1, -1, 1, -1, -1, 1, 1, -1, 1, -1, 1, -1, 1, -1, -1, 1, 1, 1, 1, 1, -1, -1, 1, -1, -1, 1, 1, -1, 1, 1, -1, -1, 1, 1, -1, 1, 1, -1, 1, -1, -1, 1, 1, -1, 1, 1, 1, -1, -1, -1, -1, 1, 1, -1, 1, 1, -1, -1, 1, -1, 1, -1, 1, -1, 1, -1, 1, 1, 1, 1, -1, 1, 1, -1, 1, -1, 1, -1, -1, 1, 1, -1, 1, 1, -1, -1, 1, 1, 1, -1, -1, 1, 1, 1, 1, -1, -1, 1, -1, -1, -1, 1, -1, 1, 1, 1, 1, 1, -1, 1, -1, 1, 1, 1, 1, 1, -1, 1, 1, -1, 1, -1, 1, -1, 1, 1, -1, 1, -1, 1, 1, 1, -1, -1, 1, 1, -1, 1, -1, 1, 1, -1, -1, -1, 1, 1, -1, 1, 1, 1, 1, 1, 1, -1, -1, -1, 1, 1, 1, -1, -1, 1, -1, 1, -1, -1, -1, 1, -1, -1, 1, -1, 1, 1, -1, -1, -1, 1, -1, -1, -1, -1, 1, -1, -1, 1, -1, 1, 1, -1, -1, -1, 1, -1, -1, -1, 1, 1, 1, 1, -1, -1, -1, 1, -1, 1, 1, 1, -1, -1, -1, -1, -1, -1, -1, 1, -1, -1, 1, -1, 1, -1, 1, 1, -1, -1, 1, 1, 1, -1, -1, 1, -1, 1, -1, 1, -1, 1, 1, -1, 1, -1, -1, 1, -1, -1, 1, 1, 1, -1, -1, -1, 1, -1, -1, 1, 1, -1, 1, 1, 1, -1, -1, 1, -1, -1, 1, -1, 1, -1, 1, 1, -1, -1, -1, 1, 1, -1, 1, 1, 1, -1, -1, 1, 1, 1, -1, 1, 1, -1, 1, -1, 1, 1, 1, -1, -1, -1, 1, 1, 1, -1, -1, 1, -1, 1, -1, 1, 1, 1, 1, -1, -1, 1, -1, -1, -1, -1, 1, 1, 1, 1, -1, 1, -1, -1, 1, -1, 1, -1, 1, 1, -1, 1, -1, 1, -1, -1, 1, 1, 1, 1, -1, -1, -1, 1, 1, -1, 1, 1, 1, 1, -1, -1, -1, -1, 1, -1, 1, 1, 1, 1, -1, -1, 1, -1, 1, -1, 1, 1, 1, 1, 1, -1, 1, -1, 1, -1, -1, 1, 1, -1, 1, -1, 1, 1, 1, -1, 1, 1, -1, 1, 1, -1, 1, 1, -1, -1, 1, -1, 1, -1, -1, -1, 1, 1, 1, -1, -1, -1, 1, 1, 1, -1, 1, 1, 1, -1, 1, -1, 1, 1, 1, -1, 1, 1, -1, 1, 1, -1, 1, -1, -1, 1, 1, -1, 1, -1, -1, -1, 1, -1, -1, 1, 1, 1, -1, 1, -1, -1, -1, 1, 1, 1, 1, 1, -1, -1, -1, 1, -1, 1, -1, 1, 1, 1, -1, 1, -1, -1, 1, -1, 1, -1, 1, -1, 1, -1, -1, -1, 1, 1, 1, 1, 1, 1, -1, -1, -1, -1, 1, -1, 1, 1, -1, 1, 1, -1, -1, -1, 1, -1, 1, -1, 1, 1, -1, -1, -1, -1, 1, -1, 1, 1, -1, 1, -1, -1, -1, -1, -1, -1, 1, 1, 1, -1, -1, 1, -1, 1, 1, -1, 1, -1, 1, 1, -1, -1, -1, 1, -1, -1, 1, -1, 1, 1, -1, -1, -1, -1, -1, 1, 1, -1, 1, -1, -1, -1, -1, -1, 1, -1, 1, -1, -1, 1, -1, 1, -1, 1, -1, -1, 1, -1, 1, 1, -1, 1, -1, -1, 1, -1, 1, -1, -1, 1, -1, 1, -1, 1, -1, -1, -1, -1, -1, -1, -1, -1, -1, -1, 1, -1, 1, -1, 1, -1, 1, -1, -1, -1, 1, -1, -1, 1, -1, 1, 1, -1, -1, -1, 1, -1, -1, -1, -1, -1, 1, -1, -1, -1, 1, -1, 1, -1, 1, 1, -1, -1, -1, 1, -1, 1, -1, 1, -1, 1, 1, 1, -1, 1, -1, -1, 1, -1, 1, 1, 1, 1, -1, -1, -1, 1, -1, -1, 1, -1, -1, -1, -1, 1, -1, 1, 1, 1, 1, -1, 1, -1, -1, -1, -1, -1, -1, -1, -1, 1, -1, -1, -1, -1, -1, -1, 1, 1, -1, 1, 1, -1, -1, -1, -1, -1, -1, 1, -1, -1, 1, -1, 1, -1, 1, -1, -1, 1, 1, -1, 1, -1, -1, -1, 1, -1, 1, 1, -1, -1, -1, 1, -1, -1, 1, -1, 1, 1, -1, -1, 1, -1, 1, -1, 1, -1, 1, 1, 1, -1, -1, 1, -1, -1, 1, -1, 1, 1, -1, 1, 1, -1, -1, -1, 1, 1, -1, 1, -1, 1, -1, 1, 1, -1, 1, 1, -1, 1, -1, -1, -1, 1, -1, -1, 1, -1, -1, 1, -1, -1, 1, 1, -1, -1, 1, 1, 1, 1, 1, -1, 1, 1, -1, -1, 1, 1, -1, 1, -1, -1, -1, 1, -1, -1, 1, 1, -1, 1, 1, -1, -1, 1, -1, -1, 1, 1, 1, 1, -1, 1, -1, 1, -1, 1, 1, 1, 1, -1, 1, -1, -1, -1, 1, 1, -1, 1, 1, 1, 1, -1, -1, 1, -1, -1, 1, 1, 1, -1, 1, -1, -1, -1, -1, 1, -1, 1, 1, 1, 1, -1, -1, 1, 1, 1, 1, 1, -1, 1, -1, -1, -1, 1, 1, 1, -1, 1, -1, 1, -1, -1, -1, -1, 1, -1, 1, 1, 1, 1, 1, -1, -1, 1, 1, -1, 1, 1, -1, 1, -1, -1, -1, -1, 1, 1, -1, 1, -1, 1, 1, -1, 1, -1, 1, 1, -1, 1, -1, 1, -1, -1, -1, -1, 1, 1, -1, 1, -1, -1, 1, -1, 1, -1, 1, 1, -1, -1, 1, -1, 1, -1, 1, -1, 1, 1, -1, -1, -1, -1, 1, -1, 1, -1, 1, 1, -1, -1, 1, 1, 1, -1, 1, -1, -1, 1, -1, 1, 1, -1, 1, -1, 1, -1, 1, -1, -1, -1, -1, 1, 1, 1, -1, -1, 1, 1, 1, -1, 1, -1, 1, 1, -1, -1, 1, -1, -1, -1, 1, -1, 1, -1, 1, -1, 1, 1, -1, -1, 1, 1, 1, 1, 1, -1, 1, -1, 1, -1, 1, -1, 1, -1, 1, -1, 1, 1, -1, -1, 1, 1, -1, 1, -1, -1, 1, 1, -1, -1, -1, -1, 1, 1, 1, -1, 1, -1, -1, 1, -1, 1, 1, 1, -1, -1, 1, -1, -1, 1, 1, 1, -1, 1, -1, -1, -1, 1, -1, -1, -1, 1, -1, 1, 1, -1, 1, -1, -1, -1, -1, 1, 1, 1, -1, -1, -1, -1, 1, -1, 1, 1, -1, 1, -1, -1, 1, -1, -1, 1, -1, 1, -1, -1, -1, -1, 1, -1, -1, 1, -1, 1, -1, 1, -1, -1, -1, -1, 1, -1, 1, 1, -1, 1, -1, -1, -1, -1, 1, -1, 1, -1, -1, 1, -1, 1, -1, -1, -1, 1, -1, 1, -1, -1, 1, -1, -1, -1, 1, 1, 1, 1, -1, -1, -1, -1, 1, -1, -1, 1, -1, -1, -1, 1, -1, 1, -1, 1, -1, 1, 1, 1, -1, -1, -1, 1, -1, -1, -1, 1, -1, -1, 1, -1, -1, 1, -1, -1, 1, 1, -1, 1, -1, 1, -1, 1, 1, -1, -1, 1, -1, -1, -1, 1, -1, -1, 1, -1, -1, 1, 1, -1, 1, -1, -1, -1, 1, -1, 1, -1, 1, -1, -1, -1, -1, 1, -1, -1, -1, 1, 1, -1, 1, -1, -1, 1, -1, 1, 1, 1, 1, -1, 1, 1, -1, 1, -1, 1, 1, 1, -1, 1, 1, -1, -1, 1, -1, 1, 1, -1, 1, -1, 1, -1, -1, 1, 1, 1, 1, 1, 1, -1, 1, -1, 1, -1, 1, 1, -1, -1, -1, -1, 1, -1, -1, 1, -1, -1, 1, 1, -1, -1, 1, 1, -1, 1, -1, -1, 1, 1, -1, 1, 1, -1, -1, -1, 1, 1, 1, -1, 1, -1, 1, -1, 1, -1, 1, -1, 1, 1, -1, -1, 1, -1, -1, 1, 1, 1, 1, 1, 1, -1, 1, 1, -1, 1, 1, 1, 1, 1, -1, -1, 1, 1, -1, -1, 1, 1, 1, 1, 1
BQP_DATA, 2396, 11083, -5177.000000, -6639.000000, -14840.000000, -16302.000000, 2048.025960, 5979, 1487
